sat
(
  (define-fun C2_VM2 () Int
    1)
  (define-fun PriceProv2 () Int
    210)
  (define-fun C1_VM3 () Int
    0)
  (define-fun PriceProv6 () Int
    210)
  (define-fun StorageProv5 () Int
    2000)
  (define-fun C2_VM3 () Int
    0)
  (define-fun C5_VM1 () Int
    1)
  (define-fun MemProv6 () Int
    7500)
  (define-fun VM1Type () Int
    136)
  (define-fun C4_VM1 () Int
    0)
  (define-fun C4_VM2 () Int
    0)
  (define-fun C1_VM4 () Int
    0)
  (define-fun C1_VM6 () Int
    0)
  (define-fun C4_VM6 () Int
    0)
  (define-fun StorageProv3 () Int
    2000)
  (define-fun StorageProv4 () Int
    1999)
  (define-fun PriceProv4 () Int
    0)
  (define-fun C3_VM6 () Int
    0)
  (define-fun C5_VM3 () Int
    0)
  (define-fun C3_VM3 () Int
    0)
  (define-fun PriceProv1 () Int
    460)
  (define-fun PriceProv3 () Int
    532)
  (define-fun C5_VM6 () Int
    1)
  (define-fun VM5Type () Int
    182)
  (define-fun ProcProv5 () Int
    4)
  (define-fun VM2Type () Int
    182)
  (define-fun StorageProv6 () Int
    2000)
  (define-fun C1_VM2 () Int
    0)
  (define-fun C4_VM3 () Int
    1)
  (define-fun ProcProv6 () Int
    4)
  (define-fun PriceProv5 () Int
    210)
  (define-fun C3_VM1 () Int
    1)
  (define-fun StorageProv1 () Int
    2000)
  (define-fun VM4Type () Int
    0)
  (define-fun ProcProv3 () Int
    8)
  (define-fun C2_VM5 () Int
    0)
  (define-fun ProcProv1 () Int
    8)
  (define-fun C5_VM4 () Int
    0)
  (define-fun C2_VM6 () Int
    1)
  (define-fun C3_VM5 () Int
    0)
  (define-fun MemProv2 () Int
    7500)
  (define-fun ProcProv4 () Int
    18)
  (define-fun MemProv5 () Int
    7500)
  (define-fun C3_VM2 () Int
    0)
  (define-fun C2_VM4 () Int
    0)
  (define-fun VM3Type () Int
    134)
  (define-fun C5_VM2 () Int
    1)
  (define-fun C5_VM5 () Int
    0)
  (define-fun C2_VM1 () Int
    0)
  (define-fun StorageProv2 () Int
    2000)
  (define-fun VM6Type () Int
    182)
  (define-fun MemProv1 () Int
    15000)
  (define-fun C3_VM4 () Int
    0)
  (define-fun C4_VM5 () Int
    0)
  (define-fun MemProv4 () Int
    15249)
  (define-fun C1_VM5 () Int
    1)
  (define-fun ProcProv2 () Int
    4)
  (define-fun MemProv3 () Int
    30000)
  (define-fun C4_VM4 () Int
    0)
  (define-fun C1_VM1 () Int
    0)
)
(objectives
 ( 16)
 ((+ 0 PriceProv1 PriceProv2 PriceProv3 PriceProv4 PriceProv5 PriceProv6) 1622)
)
(:added-eqs                   152785
 :arith-eq-adapter            42263
 :arith-bound-propagations-lp 109249
 :arith-conflicts             28
 :arith-diseq                 460179
 :arith-fixed-eqs             2479
 :arith-lower                 712421
 :arith-make-feasible         33343
 :arith-max-columns           350
 :arith-max-rows              20
 :arith-upper                 242426
 :binary-propagations         719845
 :bv-bit2core                 16826
 :bv-dynamic-diseqs           470326
 :bv->core-eq                 412
 :conflicts                   2915
 :decisions                   120856
 :del-clause                  612056
 :final-checks                50
 :max-memory                  87.48
 :memory                      84.96
 :minimized-lits              67362
 :mk-bool-var                 85704
 :mk-clause                   612370
 :mk-clause-binary            6672
 :num-allocs                  1023305800
 :num-checks                  51
 :pb-conflicts                108
 :pb-predicates               82
 :pb-propagations             9863
 :pb-resolves                 100
 :propagations                2539458
 :restarts                    18
 :rlimit-count                15223740
 :solve-eqs-elim-vars         1
 :solve-eqs-steps             10
 :time                        1.14
 :total-time                  1.15)
